webassembly/ejemplos_dzn/11/folder11_json_10.dzn
TERM = { '.', 's(5)', 's(2)', 's(4)', 'in_1', 'local_0', 'local_1', 'in_2', 'in_4', 'in_3', 's(1)', 's(0)', 's(3)', 'in_0'};
null = '.';
s = 11;
n = 12;
ndeps = 4;
max_registers_sz = 4;
NR = 1;
registers = [|'local_1', 'in_1'|];
dependencies = [|'i32.load8_s_0', 'i32.store8_8', |'i32.store8_8', 'call[function_index(0)]_10', |'i32.load8_s_5', 'i32.store8_8', |'i32.load_7', 'i32.store8_8'|];
GET_ENUM = { GET1, GET2, GET3, GET4, GET5};
SET_ENUM = { SET1, SET2, SET3, SET4, SET5};
TEE_ENUM = { TEE1, TEE2, TEE3, TEE4, TEE5};
N = 6;
OP = { 'call[function_index(0)]_10', 'i32.load8_s_0', 'i32.load8_s_5', 'i32.load_7', 'i32.store8_8', 'local.get_0' };
in_ops = [3, 1, 1, 1, 2, 0 ];
out_ops = [3, 1, 1, 1, 0, 1 ];
in1 = ['in_2', 'in_0', 'local_0', 'local_0', 's(2)', '.' ];
in2 = ['in_3', '.', '.', '.', 's(0)', '.' ];
in3 = ['in_4', '.', '.', '.', '.', '.' ];
out1 = ['s(5)', 's(0)', 's(1)', 's(2)', '.', 'local_0' ];
out2 = ['s(4)', '.', '.', '.', '.', '.' ];
out3 = ['s(3)', '.', '.', '.', '.', '.' ];
comm = [false, false, false, false, false, false ];
gas = [1, 1, 1, 1, 1, 1 ];
sz = [1, 1, 1, 1, 1, 1 ];
stor = [true, false, false, false, true, false ];
lb = [ 1, 1, 1, 1, 1, 1 ];
ub = [ 11, 11, 11, 11, 11, 11 ];
startstack = [ 'in_0', 'in_1', 'in_2', 'in_3', 'in_4', null, null, null, null, null, null, null ];
endstack = [ 's(5)', 's(4)', 's(3)', null, null, null, null, null, null, null, null, null ];
